CMD:
./solvers/bin/cadical --plain --no-reduce -t 1600 ./data/cnfs//texasparsesysp3/texasparsesysp3.60.cnf

c --- [ banner ] -------------------------------------------------------------
c 
c CaDiCaL SAT Solver
c Copyright (c) 2016-2024
c A. Biere, M. Fleury, N. Froleyks, K. Fazekas, F. Pollitt, T. Faller
c JKU Linz, University of Freiburg, TU Wien
c 
c Version 2.1.3 5296d3d2a9bf48c154ab2acb5e44625776d821bf
c g++ (Gentoo 12.3.1_p20230526 p2) 12.3.1 20230526 -Wall -Wextra -O3 -DNDEBUG
c Sat Aug 9 07:26:21 PDT 2025 Linux cedar2.int.cedar.computecanada.ca 5.14.0-362.24.2.el9_3.x86_64 x86_64
c 
c --- [ limit ] --------------------------------------------------------------
c 
c setting time limit to 1600 seconds real time (due to '-t 1600')
c 
c --- [ parsing input ] ------------------------------------------------------
c 
c reading DIMACS file from './data/cnfs//texasparsesysp3/texasparsesysp3.60.cnf'
c opening file to read './data/cnfs//texasparsesysp3/texasparsesysp3.60.cnf'
c found 'p cnf 724443 2170875' header
c parsed 2170875 clauses in 0.43 seconds process time
c 
c --- [ options ] ------------------------------------------------------------
c 
c   --compact=false                (different from default 'true')
c   --decompose=false              (different from default 'true')
c   --deduplicate=false            (different from default 'true')
c   --elim=false                   (different from default 'true')
c   --probe=false                  (different from default 'true')
c   --reduce=false                 (different from default 'true')
c   --subsume=false                (different from default 'true')
c   --ternary=false                (different from default 'true')
c   --transred=false               (different from default 'true')
c   --vivify=false                 (different from default 'true')
c 
c --- [ solving ] ------------------------------------------------------------
c 
c time measured in process time since initialization
c 
c  seconds   reductions  redundant   irredundant
c          MB    restarts       trail        variables
c           level   conflicts       glue           remaining
c 
c *  0.43 326  0 0   0    0    0  0% 0 2098401 682925 94%
c {  0.44 327  0 0   0    0    0  0% 0 2098401 682925 94%
c i  0.44 327 100 0   0   14    7  6% 2 2098401 681347 94%
c i  0.60 335 807 0   0   87   75 46% 1 2098401 676889 93%
c i  0.61 335 847 0   0   92   79 49% 1 2098401 671920 93%
c i  0.61 335 897 0   1  106   91 54% 1 2098401 671730 93%
c i  0.62 335 776 0   1  122  102 48% 1 2098401 660262 91%
c i  0.62 335 724 0   1  130  109 46% 1 2098401 660051 91%
c i  0.63 335 712 0   1  133  109 45% 1 2098401 650654 90%
c i  0.71 336 487 0   4  203  178 46% 1 2098401 634381 88%
c i  0.72 336 489 0   4  204  178 46% 1 2098401 634376 88%
c i  0.92 337 530 0   7  221  194 50% 1 2098401 634371 88%
c i  0.92 337 533 0   7  222  194 51% 1 2098401 634366 88%
c i  0.92 337 535 0   8  223  194 51% 1 2098401 634361 88%
c i  0.92 337 538 0   8  224  194 51% 1 2098401 634356 88%
c i  0.92 337 540 0   8  225  194 51% 1 2098401 634351 88%
c i  0.92 337 542 0   8  226  194 52% 1 2098401 634346 88%
c i  0.92 337 545 0   8  227  194 52% 1 2098401 634341 88%
c i  1.19 337 584 0  12  244  210 55% 1 2098401 634336 88%
c i  1.19 337 586 0  12  245  210 55% 1 2098401 634331 88%
c 
c  seconds    reductions  redundant   irredundant
c          MB     restarts       trail        variables
c            level   conflicts       glue           remaining
c 
c i  1.19 337 588 0  12  246  210 55% 1 2098401 634326 88%
c i  1.19 337 590 0  13  247  210 56% 1 2098401 634321 88%
c i  1.19 337 592 0  13  248  210 56% 1 2098401 634316 88%
c i  1.19 337 594 0  13  249  210 56% 1 2098401 634311 88%
c i  1.19 337 596 0  13  250  210 56% 1 2098401 634306 88%
c i  1.19 337 598 0  13  251  210 56% 1 2098401 634301 88%
c i  1.19 337 600 0  13  252  210 56% 1 2098401 634296 88%
c i  1.19 337 602 0  13  253  210 57% 1 2098401 634291 88%
c i  1.19 337 604 0  13  254  210 57% 1 2098401 634286 88%
c i  1.19 337 606 0  13  255  210 57% 1 2098401 634281 88%
c i  1.19 337 608 0  13  256  210 57% 1 2098401 634276 88%
c i  1.19 337 610 0  13  257  210 57% 1 2098401 634271 88%
c i  1.19 337 612 0  13  258  210 57% 1 2098401 634266 88%
c i  1.19 337 614 0  13  259  210 58% 1 2098401 634261 88%
c i  1.21 337 632 0  13  268  217 59% 1 2098401 634221 88%
c i  1.21 337 636 0  13  270  218 59% 1 2098401 634134 88%
c i  1.22 337 640 0  13  275  220 60% 1 2098401 633728 87%
c i  1.27 337 599 0  15  298  242 61% 1 2098401 633701 87%
c i  1.36 337 613 0  22  317  260 63% 1 2098401 633435 87%
c i  1.36 337 614 0  22  318  260 63% 1 2098401 633430 87%
c 
c  seconds    reductions  redundant   irredundant
c          MB     restarts       trail        variables
c            level   conflicts       glue           remaining
c 
c i  1.36 337 615 0  22  319  260 63% 1 2098401 633425 87%
c i  1.36 337 616 0  23  320  260 63% 1 2098401 633420 87%
c i  1.36 337 618 0  23  321  260 64% 1 2098401 633415 87%
c i  1.36 337 619 0  23  322  260 64% 1 2098401 633410 87%
... skipped 73374 lines ...
v -723903 723904 -723905 723906 -723907 -723908 723909 723910 -723911 -723912
v 723913 723914 -723915 -723916 723917 723918 -723919 -723920 -723921 -723922
v -723923 -723924 723925 -723926 723927 -723928 -723929 -723930 723931 -723932
v -723933 -723934 723935 -723936 -723937 -723938 723939 -723940 -723941
v -723942 723943 -723944 -723945 723946 723947 723948 723949 -723950 723951
v -723952 -723953 723954 -723955 -723956 -723957 723958 -723959 -723960
v -723961 723962 -723963 -723964 -723965 723966 -723967 -723968 723969 723970
v 723971 723972 -723973 723974 -723975 -723976 723977 -723978 -723979 -723980
v 723981 -723982 -723983 -723984 723985 -723986 -723987 -723988 723989 -723990
v -723991 723992 723993 723994 723995 -723996 723997 -723998 -723999 724000
v -724001 -724002 -724003 724004 -724005 -724006 -724007 724008 -724009
v -724010 -724011 724012 -724013 -724014 724015 724016 724017 724018 -724019
v 724020 -724021 -724022 724023 -724024 -724025 -724026 724027 -724028 -724029
v -724030 724031 -724032 -724033 -724034 724035 -724036 -724037 724038 724039
v 724040 724041 -724042 724043 -724044 -724045 724046 -724047 -724048 -724049
v 724050 -724051 -724052 -724053 724054 -724055 -724056 -724057 724058 -724059
v -724060 724061 724062 724063 724064 -724065 724066 -724067 -724068 724069
v -724070 -724071 -724072 724073 -724074 -724075 -724076 724077 -724078
v -724079 -724080 724081 -724082 -724083 724084 724085 724086 724087 -724088
v 724089 -724090 -724091 724092 -724093 -724094 -724095 724096 -724097 -724098
v -724099 724100 -724101 -724102 -724103 724104 -724105 -724106 724107 724108
v 724109 724110 -724111 724112 -724113 -724114 -724115 724116 -724117 724118
v -724119 -724120 -724121 724122 -724123 -724124 -724125 -724126 724127
v -724128 724129 724130 724131 -724132 724133 -724134 -724135 724136 -724137
v -724138 -724139 724140 -724141 -724142 -724143 -724144 724145 -724146 724147
v 724148 724149 -724150 724151 -724152 -724153 724154 -724155 -724156 -724157
v 724158 -724159 -724160 -724161 -724162 724163 -724164 724165 724166 724167
v -724168 724169 -724170 -724171 724172 -724173 -724174 -724175 724176 -724177
v -724178 -724179 -724180 724181 -724182 724183 724184 724185 -724186 724187
v -724188 -724189 724190 -724191 -724192 -724193 724194 -724195 -724196
v -724197 -724198 724199 -724200 724201 724202 724203 -724204 724205 -724206
v -724207 724208 -724209 -724210 -724211 724212 -724213 -724214 -724215
v -724216 724217 -724218 724219 724220 724221 -724222 724223 -724224 -724225
v 724226 -724227 -724228 -724229 724230 -724231 -724232 -724233 -724234 724235
v -724236 724237 724238 724239 -724240 724241 -724242 -724243 724244 -724245
v -724246 -724247 724248 -724249 -724250 -724251 -724252 724253 -724254 724255
v 724256 724257 -724258 724259 -724260 -724261 724262 -724263 -724264 -724265
v 724266 -724267 -724268 -724269 724270 -724271 -724272 -724273 -724274 724275
v -724276 724277 724278 724279 724280 -724281 724282 -724283 -724284 724285
v -724286 -724287 -724288 724289 -724290 -724291 -724292 724293 -724294
v -724295 -724296 -724297 724298 -724299 724300 724301 724302 724303 -724304
v 724305 -724306 -724307 724308 -724309 -724310 -724311 724312 -724313 -724314
v -724315 724316 -724317 -724318 -724319 -724320 724321 -724322 724323 724324
v 724325 724326 -724327 724328 -724329 -724330 724331 -724332 -724333 -724334
v 724335 -724336 -724337 -724338 724339 -724340 -724341 -724342 -724343 724344
v -724345 724346 724347 724348 724349 -724350 724351 -724352 -724353 724354
v -724355 -724356 -724357 724358 -724359 -724360 -724361 724362 -724363
v -724364 -724365 -724366 724367 -724368 724369 724370 724371 724372 -724373
v 724374 -724375 -724376 724377 -724378 -724379 -724380 724381 -724382 -724383
v -724384 724385 -724386 -724387 -724388 -724389 724390 -724391 724392 724393
v 724394 724395 -724396 724397 -724398 -724399 724400 -724401 -724402 -724403
v 724404 -724405 -724406 -724407 724408 -724409 -724410 -724411 -724412 724413
v -724414 724415 724416 724417 724418 -724419 724420 -724421 -724422 724423
v -724424 -724425 -724426 724427 -724428 -724429 -724430 724431 -724432
v -724433 -724434 -724435 724436 -724437 724438 724439 724440 724441 724442
v -724443 0
c 
c --- [ run-time profiling ] -------------------------------------------------
c 
c process time taken by individual solving procedures
c (percentage relative to process time for solving)
c 
c         0.93   99.99% search
c         0.92   99.35% unstable
c         0.43   46.42% parse
c         0.01    0.64% lucky
c         0.00    0.00% simplify
c   =================================
c         0.93   66.35% solve
c 
c last line shows process time for solving
c (percentage relative to total process time)
c 
c --- [ statistics ] ---------------------------------------------------------
c 
c chronological:               246        75.93 %  of conflicts
c conflicts:                   324       348.85    per second
c decisions:                 11692     12588.87    per second
c fixed:                     91043        12.57 %  of all variables
c learned:                     309        95.37 %  per conflict
c learned_lits:                891       100.00 %  learned literals
c minimized:                     0         0.00 %  learned literals
c shrunken:                     10         1.12 %  learned literals
c minishrunken:                  5         0.56 %  learned literals
c otfs:                          1         0.31 %  of conflict
c propagations:            7357818         7.92 M  per second
c restarts:                     23        14.09    interval
c strengthened:                  1         0.00 %  of all clauses
c 
c seconds are measured in process time for solving
c 
c --- [ resources ] ----------------------------------------------------------
c 
c total process time since initialization:         1.40    seconds
c total real time since initialization:            1.42    seconds
c maximum resident set size of process:          341.74    MB
c 
c --- [ shutting down ] ------------------------------------------------------
c 
c exit 10
